COLUMNS

passenger_count
pickup_ID
dropoff_ID
request_time_sec
pickup_district
dropoff_district
LDuals
IDuals
vehicle_ID
pick_position
drop_position

REQUESTS_INFO
1      457       285       29243     52        299       126       126       566       1         2         
1      768       790       29250     290       290       0         0         0         0         0         
1      883       698       29250     290       189       0         0         0         0         0         
1      36        184       29251     98        87        0         0         0         0         0         
1      600       421       29251     280       168       0         0         0         0         0         
4      527       419       29251     52        168       0         0         0         0         0         
1      297       1011      29251     277       84        0         0         0         0         0         
1      296       253       29251     277       206       0         0         0         0         0         
1      373       252       29252     119       206       0         0         0         0         0         
1      842       718       29252     290       189       0         0         0         0         0         
1      349       651       29253     127       189       0         0         0         0         0         
1      992       746       29253     290       290       0         0         0         0         0         
2      970       746       29253     290       290       0         0         0         0         0         
1      460       125       29255     189       54        0         0         0         0         0         
2      550       647       29255     189       280       0         0         0         0         0         
1      1001      81        29255     291       98        0         0         0         0         0         
1      527       648       29255     52        189       0         0         0         0         0         
1      1129      1232      29255     291       129       0         0         0         0         0         
3      620       439       29255     131       189       0         0         0         0         0         
2      620       439       29255     131       189       0         0         0         0         0         
1      533       757       29257     199       131       0         0         0         0         0         
1      354       604       29257     119       189       0         0         0         0         0         
1      950       580       29257     290       189       0         0         0         0         0         
1      791       940       29257     290       291       0         0         0         0         0         
1      740       696       29258     50        189       0         0         0         0         0         
1      839       904       29258     290       290       0         0         0         0         0         
1      673       550       29258     189       189       0         0         0         0         0         
3      505       554       29258     52        189       0         0         0         0         0         
1      962       714       29259     291       131       0         0         0         0         0         
1      884       909       29259     290       290       0         0         0         0         0         
3      629       31        29260     189       9         0         0         0         0         0         
1      366       601       29261     299       189       0         0         0         0         0         
2      551       740       29261     189       50        0         0         0         0         0         
2      257       332       29261     87        87        0         0         0         0         0         
3      257       332       29261     87        87        0         0         0         0         0         
1      818       550       29261     290       189       0         0         0         0         0         
1      213       627       29261     266       189       0         0         0         0         0         
2      507       488       29262     189       199       0         0         0         0         0         
3      925       628       29263     290       189       0         0         0         0         0         
1      501       481       29263     52        189       0         0         0         0         0         
1      484       555       29263     189       199       0         0         0         0         0         
2      789       884       29263     290       290       0         0         0         0         0         
1      1023      692       29263     291       280       0         0         0         0         0         
1      604       373       29263     189       119       0         0         0         0         0         
1      747       902       29263     290       50        0         0         0         0         0         
3      925       628       29263     290       189       0         0         0         0         0         
1      924       574       29264     290       189       0         0         0         0         0         
1      549       628       29265     52        189       0         0         0         0         0         
2      970       507       29265     290       189       0         0         0         0         0         
1      509       1032      29265     199       84        0         0         0         0         0         
2      838       1218      29266     290       84        0         0         0         0         0         
1      442       692       29266     168       280       0         0         0         0         0         
3      838       1218      29266     290       84        0         0         0         0         0         
1      738       571       29266     189       52        0         0         0         0         0         
1      549       794       29267     52        290       0         0         0         0         0         
1      619       790       29267     131       290       0         0         0         0         0         
1      394       628       29268     100       189       0         0         0         0         0         
1      923       697       29269     290       189       0         0         0         0         0         
1      620       698       29270     131       189       0         0         0         0         0         
2      628       527       29270     189       52        0         0         0         0         0         
2      571       410       29271     52        52        0         0         0         0         0         
1      390       648       29271     52        189       0         0         0         0         0         
3      571       410       29271     52        52        0         0         0         0         0         
1      673       717       29271     189       189       0         0         0         0         0         
1      394       10        29271     100       98        0         0         0         0         0         
1      324       48        29272     299       98        0         0         0         0         0         
1      488       725       29272     199       290       0         0         0         0         0         
4      858       19        29272     290       98        0         0         0         0         0         
2      218       576       29272     87        189       0         0         0         0         0         
1      552       647       29272     189       280       0         0         0         0         0         
3      483       694       29272     189       189       0         0         0         0         0         
3      504       374       29273     52        119       0         0         0         0         0         
1      598       557       29274     189       189       0         0         0         0         0         
2      367       573       29274     299       189       0         0         0         0         0         
3      676       726       29275     189       290       0         0         0         0         0         
1      189       533       29275     286       199       0         0         0         0         0         
2      458       199       29275     52        178       0         0         0         0         0         
1      642       504       29276     131       52        0         0         0         0         0         
1      723       627       29276     290       189       0         0         0         0         0         
1      817       673       29277     290       189       0         0         0         0         0         
3      369       576       29278     52        189       0         0         0         0         0         
2      369       576       29278     52        189       0         0         0         0         0         
3      626       507       29278     189       189       0         0         0         0         0         
3      626       507       29278     189       189       0         0         0         0         0         
1      621       625       29278     280       189       0         0         0         0         0         
1      737       138       29279     189       57        0         0         0         0         0         
